c File: data_files/evolved_graphs/g7362.col
c
c Auto generated graph
c
p edge 100 385
e 1 23
e 1 38
e 1 41
e 1 67
e 1 72
e 1 88
e 1 90
e 1 93
e 1 99
e 2 24
e 2 36
e 2 37
e 2 52
e 2 59
e 2 66
e 2 75
e 2 88
e 3 36
e 3 46
e 3 73
e 3 76
e 3 78
e 3 91
e 3 95
e 3 97
e 4 5
e 4 7
e 4 15
e 4 45
e 4 51
e 4 53
e 4 56
e 4 64
e 4 89
e 4 93
e 5 11
e 5 16
e 5 24
e 5 25
e 5 37
e 5 62
e 5 81
e 5 82
e 5 86
e 5 91
e 6 22
e 6 34
e 6 41
e 6 50
e 6 60
e 6 87
e 6 89
e 6 91
e 7 21
e 7 27
e 7 34
e 7 54
e 7 60
e 7 68
e 7 99
e 8 23
e 8 37
e 8 46
e 8 69
e 8 78
e 8 79
e 8 94
e 9 29
e 9 38
e 9 46
e 9 70
e 9 76
e 9 77
e 9 86
e 9 92
e 9 94
e 10 40
e 10 47
e 10 65
e 10 89
e 10 92
e 10 93
e 10 100
e 11 35
e 11 37
e 11 43
e 11 46
e 11 56
e 11 80
e 11 84
e 11 92
e 11 99
e 12 29
e 12 44
e 12 48
e 12 58
e 12 77
e 12 83
e 12 85
e 12 93
e 12 96
e 13 31
e 13 35
e 13 55
e 13 63
e 13 91
e 13 98
e 14 33
e 14 43
e 14 52
e 14 57
e 14 58
e 14 60
e 14 64
e 14 67
e 14 90
e 15 66
e 15 69
e 15 71
e 15 78
e 15 96
e 16 25
e 16 33
e 16 35
e 16 49
e 16 54
e 16 72
e 16 73
e 17 25
e 17 32
e 17 47
e 17 49
e 17 52
e 17 55
e 17 70
e 17 75
e 17 97
e 18 25
e 18 29
e 18 45
e 18 48
e 18 61
e 18 65
e 18 75
e 19 25
e 19 26
e 19 31
e 19 58
e 19 86
e 19 89
e 19 95
e 19 97
e 20 27
e 20 28
e 20 31
e 20 48
e 20 49
e 20 66
e 20 71
e 20 82
e 20 98
e 21 25
e 21 36
e 21 40
e 21 50
e 21 67
e 21 98
e 22 31
e 22 36
e 22 44
e 22 47
e 22 55
e 22 61
e 22 99
e 23 25
e 23 32
e 23 47
e 23 66
e 23 76
e 23 79
e 24 25
e 24 51
e 24 52
e 24 65
e 24 96
e 26 36
e 26 45
e 26 53
e 26 60
e 26 61
e 26 62
e 26 93
e 27 28
e 27 29
e 27 52
e 27 61
e 27 64
e 27 68
e 27 72
e 27 92
e 28 38
e 28 52
e 28 61
e 28 63
e 28 82
e 28 89
e 29 40
e 29 41
e 29 59
e 29 74
e 29 76
e 31 33
e 31 46
e 32 34
e 32 83
e 32 90
e 33 45
e 33 50
e 33 79
e 33 83
e 34 84
e 34 100
e 35 41
e 35 44
e 35 49
e 35 66
e 36 45
e 36 63
e 36 66
e 36 67
e 37 41
e 37 51
e 37 57
e 37 70
e 38 44
e 38 45
e 38 46
e 38 59
e 39 50
e 39 51
e 39 62
e 39 64
e 39 85
e 40 44
e 40 78
e 40 80
e 40 81
e 40 90
e 41 63
e 41 68
e 41 87
e 42 43
e 42 48
e 42 53
e 42 54
e 42 64
e 42 68
e 42 70
e 43 59
e 43 68
e 44 61
e 44 97
e 45 55
e 45 83
e 46 48
e 46 74
e 47 54
e 47 61
e 47 76
e 47 98
e 48 54
e 48 62
e 48 66
e 49 64
e 49 69
e 49 96
e 49 100
e 50 99
e 51 58
e 51 70
e 51 73
e 51 76
e 52 54
e 52 87
e 53 70
e 53 71
e 53 74
e 53 81
e 53 93
e 54 71
e 54 76
e 55 62
e 55 78
e 55 85
e 55 92
e 55 99
e 56 57
e 56 77
e 56 80
e 56 94
e 56 97
e 56 100
e 57 71
e 57 74
e 57 85
e 57 98
e 57 100
e 58 81
e 58 87
e 58 99
e 58 100
e 59 69
e 59 72
e 59 82
e 59 85
e 60 82
e 60 88
e 60 95
e 62 78
e 62 86
e 62 100
e 63 75
e 63 86
e 63 90
e 63 100
e 64 81
e 64 85
e 64 86
e 65 83
e 65 94
e 65 96
e 65 97
e 66 70
e 66 94
e 67 72
e 67 76
e 67 89
e 67 96
e 68 75
e 68 94
e 69 90
e 69 91
e 69 93
e 69 96
e 70 95
e 71 76
e 71 92
e 72 88
e 73 74
e 73 79
e 73 90
e 74 77
e 74 90
e 74 98
e 75 80
e 75 88
e 75 89
e 77 78
e 77 83
e 77 88
e 78 83
e 78 95
e 79 82
e 79 84
e 79 96
e 80 81
e 80 90
e 80 96
e 81 82
e 81 88
e 82 85
e 82 97
e 84 86
e 84 87
e 84 95
e 84 98
e 85 94
e 85 95
e 86 97
e 86 98
e 87 93
e 90 94
e 91 97
e 91 98
e 92 93
